NAME: CMT2_4
TYPE: CVRP
COMMENT: 835.26 - Cluster Nr.4
DIMENSION: 8
CAPACITY: 140
EDGE_WEIGHT_TYPE: EUC_2D
NODE_COORD_TYPE: TWOD_COORDS
NODE_COORD_SECTION: 
1 35 51
7 30 50
8 41 46
3 29 39
5 45 42
2 33 44
6 40 40
4 35 60
DEPOT_SECTION: 
6
-1
DEMAND_SECTION: 
4 1
2 20
8 18
6 0
7 33
5 30
1 16
3 12
EOF
